(declare-fun i47.i_3_29 () (_ BitVec 64))
(declare-fun dst_reg_3_3 () (_ BitVec 64))
(declare-fun i19_3_28 () (_ BitVec 1))
(declare-fun i_3_26 () (_ BitVec 64))
(declare-fun src_reg1.sroa.11.0.copyload_3_23 () (_ BitVec 64))
(declare-fun i20.i_3_25 () (_ BitVec 64))
(declare-fun dst_reg_3_4 () (_ BitVec 64))
(declare-fun src_reg1.sroa.24.0.copyload_3_24 () (_ BitVec 64))
(declare-fun src_reg_3_18 () (_ BitVec 64))
(declare-fun src_reg_3_14 () (_ BitVec 64))
(declare-fun src_reg1.sroa.3.0.copyload_3_22 () (_ BitVec 64))
(declare-fun src_reg_3_13 () (_ BitVec 64))
(declare-fun src_reg_3_19 () (_ BitVec 32))
(declare-fun src_reg_3_17 () (_ BitVec 64))
(declare-fun src_reg_3_16 () (_ BitVec 64))
(declare-fun src_reg_3_15 () (_ BitVec 64))
(declare-fun src_reg_3_12 () (_ BitVec 32))
(declare-fun src_reg_3_11 () (_ BitVec 32))
(declare-fun src_reg_3_10 () (_ BitVec 32))
(declare-fun dst_reg_3_9 () (_ BitVec 32))
(declare-fun dst_reg_3_8 () (_ BitVec 64))
(declare-fun dst_reg_3_7 () (_ BitVec 64))
(declare-fun dst_reg_3_6 () (_ BitVec 64))
(declare-fun dst_reg_3_5 () (_ BitVec 64))
(declare-fun dst_reg_3_2 () (_ BitVec 32))
(declare-fun dst_reg_3_1 () (_ BitVec 32))
(declare-fun dst_reg_3_0 () (_ BitVec 32))
(declare-fun and124.i_3_30 () (_ BitVec 64))
(declare-fun i29.i.i_3_98 () (_ BitVec 64))
(declare-fun dst_reg_3_69 () (_ BitVec 64))
(declare-fun cmp21.i.i_3_97 () (_ BitVec 1))
(declare-fun i28.i.i_3_95 () (_ BitVec 64))
(declare-fun dst_reg_3_70 () (_ BitVec 64))
(declare-fun cmp.i246.i_3_84 () (_ BitVec 1))
(declare-fun cmp1.i248.i_3_87 () (_ BitVec 1))
(declare-fun and8.i.i_3_37 () (_ BitVec 64))
(declare-fun cond46.i134.i_3_61 () (_ BitVec 64))
(declare-fun cond.i_3_41 () (_ BitVec 64))
(declare-fun cmp41.i133.i_3_60 () (_ BitVec 1))
(declare-fun or10.i123.i_3_57 () (_ BitVec 64))
(declare-fun cond19.i125.i_3_59 () (_ BitVec 64))
(declare-fun cond.sink.i_3_49 () (_ BitVec 64))
(declare-fun cmp14.i124.i_3_58 () (_ BitVec 1))
(declare-fun and.i106.i_3_36 () (_ BitVec 64))
(declare-fun and9.i122.i_3_56 () (_ BitVec 64))
(declare-fun and9.i107.i_3_38 () (_ BitVec 64))
(declare-fun or.i117.i_3_52 () (_ BitVec 64))
(declare-fun cond.i119.i_3_54 () (_ BitVec 64))
(declare-fun .sink.i_3_47 () (_ BitVec 64))
(declare-fun cmp2.i118.i_3_53 () (_ BitVec 1))
(declare-fun and.i116.i_3_51 () (_ BitVec 64))
(declare-fun .not1.i_3_45 () (_ BitVec 1))
(declare-fun i53.i_3_43 () (_ BitVec 64))
(declare-fun src_reg1.sroa.15.0.copyload_3_33 () (_ BitVec 64))
(declare-fun i52.i_3_42 () (_ BitVec 64))
(declare-fun i51.i_3_39 () (_ BitVec 64))
(declare-fun cmp138.i_3_40 () (_ BitVec 1))
(declare-fun or3.i.i_3_35 () (_ BitVec 64))
(declare-fun or.i105.i_3_34 () (_ BitVec 64))
(declare-fun dst_reg_3_71 () (_ BitVec 32))
(declare-fun dst_reg_3_68 () (_ BitVec 64))
(declare-fun dst_reg_3_67 () (_ BitVec 64))
(declare-fun dst_reg_3_66 () (_ BitVec 64))
(declare-fun dst_reg_3_65 () (_ BitVec 64))
(declare-fun dst_reg_3_64 () (_ BitVec 32))
(declare-fun dst_reg_3_63 () (_ BitVec 32))
(declare-fun dst_reg_3_62 () (_ BitVec 32))
(declare-fun src_reg_3_81 () (_ BitVec 32))
(declare-fun src_reg_3_80 () (_ BitVec 64))
(declare-fun src_reg_3_79 () (_ BitVec 64))
(declare-fun src_reg_3_78 () (_ BitVec 64))
(declare-fun src_reg_3_77 () (_ BitVec 64))
(declare-fun src_reg_3_76 () (_ BitVec 64))
(declare-fun src_reg_3_75 () (_ BitVec 64))
(declare-fun src_reg_3_74 () (_ BitVec 32))
(declare-fun src_reg_3_73 () (_ BitVec 32))
(declare-fun src_reg_3_72 () (_ BitVec 32))
(declare-fun i.i245.i_3_82 () (_ BitVec 64))
(declare-fun i27.i.i_3_92 () (_ BitVec 64))
(declare-fun cond17.i.i_3_94 () (_ BitVec 64))
(declare-fun i26.i.i_3_91 () (_ BitVec 64))
(declare-fun cmp12.i.i_3_93 () (_ BitVec 1))
(declare-fun i25.i.i_3_88 () (_ BitVec 64))
(declare-fun cond.i250.i_3_90 () (_ BitVec 64))
(declare-fun cmp4.i.i_3_89 () (_ BitVec 1))
(declare-fun i24.i.i_3_85 () (_ BitVec 64))
(declare-fun cond36.i.i_3_100 () (_ BitVec 64))
(declare-fun cmp31.i.i_3_99 () (_ BitVec 1))
(declare-fun cmp40.i.i_3_102 () (_ BitVec 1))
(declare-fun cond53.i.i_3_104 () (_ BitVec 64))
(declare-fun cmp48.i.i_3_103 () (_ BitVec 1))
(declare-fun src_reg_3_216 () (_ BitVec 32))
(declare-fun src_reg_3_124 () (_ BitVec 32))
(declare-fun src_reg_3_215 () (_ BitVec 64))
(declare-fun src_reg_3_123 () (_ BitVec 64))
(declare-fun src_reg_3_214 () (_ BitVec 64))
(declare-fun src_reg_3_122 () (_ BitVec 64))
(declare-fun src_reg_3_213 () (_ BitVec 64))
(declare-fun src_reg_3_121 () (_ BitVec 64))
(declare-fun src_reg_3_212 () (_ BitVec 64))
(declare-fun src_reg_3_120 () (_ BitVec 64))
(declare-fun src_reg_3_211 () (_ BitVec 64))
(declare-fun src_reg_3_119 () (_ BitVec 64))
(declare-fun src_reg_3_210 () (_ BitVec 64))
(declare-fun src_reg_3_118 () (_ BitVec 64))
(declare-fun src_reg_3_209 () (_ BitVec 32))
(declare-fun src_reg_3_117 () (_ BitVec 32))
(declare-fun src_reg_3_208 () (_ BitVec 32))
(declare-fun src_reg_3_116 () (_ BitVec 32))
(declare-fun src_reg_3_207 () (_ BitVec 32))
(declare-fun src_reg_3_115 () (_ BitVec 32))
(declare-fun dst_reg_3_206 () (_ BitVec 32))
(declare-fun dst_reg_3_114 () (_ BitVec 32))
(declare-fun dst_reg_3_205 () (_ BitVec 64))
(declare-fun dst_reg_3_113 () (_ BitVec 64))
(declare-fun dst_reg_3_204 () (_ BitVec 64))
(declare-fun dst_reg_3_112 () (_ BitVec 64))
(declare-fun dst_reg_3_203 () (_ BitVec 64))
(declare-fun dst_reg_3_111 () (_ BitVec 64))
(declare-fun dst_reg_3_202 () (_ BitVec 64))
(declare-fun dst_reg_3_110 () (_ BitVec 64))
(declare-fun dst_reg_3_201 () (_ BitVec 64))
(declare-fun and.i1.i260.i_3_192 () (_ BitVec 64))
(declare-fun dst_reg_3_200 () (_ BitVec 64))
(declare-fun and4.i.i.i_3_195 () (_ BitVec 64))
(declare-fun dst_reg_3_199 () (_ BitVec 32))
(declare-fun dst_reg_3_107 () (_ BitVec 32))
(declare-fun dst_reg_3_198 () (_ BitVec 32))
(declare-fun dst_reg_3_106 () (_ BitVec 32))
(declare-fun dst_reg_3_197 () (_ BitVec 32))
(declare-fun dst_reg_3_105 () (_ BitVec 32))
(declare-fun retval.0.i.i.i.i_3_176 () (_ BitVec 32))
(declare-fun cmp.i.i.i.i_3_129 () (_ BitVec 1))
(declare-fun phi.bo_3_175 () (_ BitVec 32))
(declare-fun neg.i.i.i_3_194 () (_ BitVec 64))
(declare-fun or.i.i259.i_3_191 () (_ BitVec 64))
(declare-fun i11.i.i_3_190 () (_ BitVec 64))
(declare-fun retval.sroa.3.0.i.i.i_3_188 () (_ BitVec 64))
(declare-fun i9.i.i_3_189 () (_ BitVec 64))
(declare-fun retval.sroa.0.0.i.i.i_3_186 () (_ BitVec 64))
(declare-fun sub.i.i.i_3_183 () (_ BitVec 64))
(declare-fun cmp.i.i.i_3_178 () (_ BitVec 1))
(declare-fun and.i.i256.i_3_184 () (_ BitVec 64))
(declare-fun i.i253.i_3_125 () (_ BitVec 64))
(declare-fun notmask.i.i.i_3_181 () (_ BitVec 64))
(declare-fun sh_prom.i.i.i_3_179 () (_ BitVec 64))
(declare-fun dst_reg_3_109 () (_ BitVec 64))
(declare-fun dst_reg_3_108 () (_ BitVec 64))
(declare-fun xor.i.i.i_3_127 () (_ BitVec 64))
(declare-fun i5.i255.i_3_126 () (_ BitVec 64))
(declare-fun conv.i.i.i.i_3_173 () (_ BitVec 32))
(declare-fun i.i.i.i.i.i.neg_3_172 () (_ BitVec 32))
(declare-fun num.4.i.i.i.i.i_3_169 () (_ BitVec 32))
(declare-fun word.addr.4.lobit.i.i.i.i.i.neg_3_171 () (_ BitVec 64))
(declare-fun word.addr.4.i.i.i.i.i_3_168 () (_ BitVec 64))
(declare-fun num.3.i.i.i.i.i_3_161 () (_ BitVec 32))
(declare-fun sub22.i.i.i.i.i_3_165 () (_ BitVec 32))
(declare-fun tobool20.not.i.i.i.i.i_3_163 () (_ BitVec 1))
(declare-fun word.addr.3.i.i.i.i.i_3_160 () (_ BitVec 64))
(declare-fun shl23.i.i.i.i.i_3_167 () (_ BitVec 64))
(declare-fun num.2.i.i.i.i.i_3_153 () (_ BitVec 32))
(declare-fun sub16.i.i.i.i.i_3_157 () (_ BitVec 32))
(declare-fun tobool14.not.i.i.i.i.i_3_155 () (_ BitVec 1))
(declare-fun word.addr.2.i.i.i.i.i_3_152 () (_ BitVec 64))
(declare-fun shl17.i.i.i.i.i_3_159 () (_ BitVec 64))
(declare-fun num.1.i.i.i.i.i_3_145 () (_ BitVec 32))
(declare-fun sub10.i.i.i.i.i_3_149 () (_ BitVec 32))
(declare-fun tobool8.not.i.i.i.i.i_3_147 () (_ BitVec 1))
(declare-fun word.addr.1.i.i.i.i.i_3_144 () (_ BitVec 64))
(declare-fun shl11.i.i.i.i.i_3_151 () (_ BitVec 64))
(declare-fun spec.select17.i.i.i.i.i_3_137 () (_ BitVec 32))
(declare-fun sub4.i.i.i.i.i_3_141 () (_ BitVec 32))
(declare-fun tobool2.not.i.i.i.i.i_3_139 () (_ BitVec 1))
(declare-fun spec.select.i.i.i.i.i_3_134 () (_ BitVec 64))
(declare-fun shl5.i.i.i.i.i_3_143 () (_ BitVec 64))
(declare-fun tobool.not.i.i.i.i.i_3_131 () (_ BitVec 1))
(declare-fun shl.i.i.i.i.i_3_133 () (_ BitVec 64))
(assert (let ((a!1 (and (= cmp.i246.i_3_84 #b0) (or (= i19_3_28 #b0) (= i19_3_28 #b1))))
      (a!16 (and (= dst_reg_3_67 i.i245.i_3_82)
                 (ite (bvsgt i.i245.i_3_82 #xffffffffffffffff)
                      (= cmp.i246.i_3_84 #b1)
                      (= cmp.i246.i_3_84 #b0))
                 (=> (= i19_3_28 #b1)
                     (and (= #x00000001 src_reg_3_72)
                          (= src_reg_3_11 src_reg_3_73)
                          (= src_reg_3_12 src_reg_3_74)
                          (= src_reg_3_13 src_reg_3_75)
                          (= src_reg_3_14 src_reg_3_76)
                          (= src_reg_3_15 src_reg_3_77)
                          (= src_reg_3_16 src_reg_3_78)
                          (= src_reg_3_17 src_reg_3_79)
                          (= src_reg_3_18 src_reg_3_80)
                          (= src_reg_3_19 src_reg_3_81)
                          (= #x00000001 dst_reg_3_62)
                          (= dst_reg_3_1 dst_reg_3_63)
                          (= #x00000000 dst_reg_3_64)
                          (= and124.i_3_30 dst_reg_3_65)
                          (= #x0000000000000000 dst_reg_3_66)
                          (= and124.i_3_30 dst_reg_3_67)
                          (= and124.i_3_30 dst_reg_3_68)
                          (= and124.i_3_30 dst_reg_3_69)
                          (= and124.i_3_30 dst_reg_3_70)
                          (= dst_reg_3_9 dst_reg_3_71)))
                 (=> (= i19_3_28 #b0)
                     (and (= #x00000001 src_reg_3_72)
                          (= src_reg_3_11 src_reg_3_73)
                          (= src_reg_3_12 src_reg_3_74)
                          (= src_reg_3_13 src_reg_3_75)
                          (= src_reg_3_14 src_reg_3_76)
                          (= src_reg_3_15 src_reg_3_77)
                          (= src_reg_3_16 src_reg_3_78)
                          (= src_reg_3_17 src_reg_3_79)
                          (= src_reg_3_18 src_reg_3_80)
                          (= src_reg_3_19 src_reg_3_81)
                          (= #x00000001 dst_reg_3_62)
                          (= dst_reg_3_1 dst_reg_3_63)
                          (= dst_reg_3_2 dst_reg_3_64)
                          (= and.i106.i_3_36 dst_reg_3_65)
                          (= and9.i107.i_3_38 dst_reg_3_66)
                          (= cond.i119.i_3_54 dst_reg_3_67)
                          (= cond19.i125.i_3_59 dst_reg_3_68)
                          (= and.i106.i_3_36 dst_reg_3_69)
                          (= cond46.i134.i_3_61 dst_reg_3_70)
                          (= dst_reg_3_9 dst_reg_3_71)))))
      (a!17 (=> (= i19_3_28 #b0)
                (and (= src_reg_3_15 src_reg1.sroa.15.0.copyload_3_33)
                     (= or.i105.i_3_34 (bvor i47.i_3_29 i20.i_3_25))
                     (= or3.i.i_3_35
                        (bvor src_reg1.sroa.11.0.copyload_3_23
                              src_reg1.sroa.3.0.copyload_3_22))
                     (= and.i106.i_3_36
                        (bvand i47.i_3_29 src_reg1.sroa.3.0.copyload_3_22))
                     (= and8.i.i_3_37 (bvand or.i105.i_3_34 or3.i.i_3_35))
                     (= and9.i107.i_3_38 (bvxor and8.i.i_3_37 and.i106.i_3_36))
                     (= dst_reg_3_8 i51.i_3_39)
                     (ite (bvult i51.i_3_39 src_reg1.sroa.24.0.copyload_3_24)
                          (= cmp138.i_3_40 #b1)
                          (= cmp138.i_3_40 #b0))
                     (ite (= cmp138.i_3_40 #b1)
                          (= cond.i_3_41 i51.i_3_39)
                          (= cond.i_3_41 src_reg1.sroa.24.0.copyload_3_24))
                     (= dst_reg_3_5 i52.i_3_42)
                     (= i53.i_3_43
                        (bvor i52.i_3_42 src_reg1.sroa.15.0.copyload_3_33))
                     (ite (bvsgt i53.i_3_43 #xffffffffffffffff)
                          (= .not1.i_3_45 #b1)
                          (= .not1.i_3_45 #b0))
                     (ite (= .not1.i_3_45 #b1)
                          (= .sink.i_3_47 and.i106.i_3_36)
                          (= .sink.i_3_47 #x8000000000000000))
                     (ite (= .not1.i_3_45 #b1)
                          (= cond.sink.i_3_49 cond.i_3_41)
                          (= cond.sink.i_3_49 #x7fffffffffffffff))
                     (= and.i116.i_3_51
                        (bvand and9.i107.i_3_38 #x8000000000000000))
                     (= or.i117.i_3_52 (bvor and.i116.i_3_51 and.i106.i_3_36))
                     (ite (bvsgt .sink.i_3_47 or.i117.i_3_52)
                          (= cmp2.i118.i_3_53 #b1)
                          (= cmp2.i118.i_3_53 #b0))
                     (ite (= cmp2.i118.i_3_53 #b1)
                          (= cond.i119.i_3_54 .sink.i_3_47)
                          (= cond.i119.i_3_54 or.i117.i_3_52))
                     (= and9.i122.i_3_56
                        (bvand and9.i107.i_3_38 #x7fffffffffffffff))
                     (= or10.i123.i_3_57
                        (bvor and9.i122.i_3_56 and.i106.i_3_36))
                     (ite (bvslt cond.sink.i_3_49 or10.i123.i_3_57)
                          (= cmp14.i124.i_3_58 #b1)
                          (= cmp14.i124.i_3_58 #b0))
                     (ite (= cmp14.i124.i_3_58 #b1)
                          (= cond19.i125.i_3_59 cond.sink.i_3_49)
                          (= cond19.i125.i_3_59 or10.i123.i_3_57))
                     (ite (bvult cond.i_3_41 and8.i.i_3_37)
                          (= cmp41.i133.i_3_60 #b1)
                          (= cmp41.i133.i_3_60 #b0))
                     (ite (= cmp41.i133.i_3_60 #b1)
                          (= cond46.i134.i_3_61 cond.i_3_41)
                          (= cond46.i134.i_3_61 and8.i.i_3_37)))))
      (a!19 (=> (= i19_3_28 #b1)
                (and (= and124.i_3_30
                        (bvand i47.i_3_29 src_reg1.sroa.3.0.copyload_3_22))))))
(let ((a!2 (and (= cmp40.i.i_3_102 #b1)
                (and (= cmp21.i.i_3_97 #b0) (and (= cmp1.i248.i_3_87 #b0) a!1))))
      (a!3 (and (= cmp40.i.i_3_102 #b0)
                (and (= cmp21.i.i_3_97 #b0) (and (= cmp1.i248.i_3_87 #b0) a!1))))
      (a!4 (or (and (= cmp1.i248.i_3_87 #b1) a!1)
               (and (= cmp.i246.i_3_84 #b1)
                    (or (= i19_3_28 #b0) (= i19_3_28 #b1)))))
      (a!7 (=> (and (= cmp21.i.i_3_97 #b1) (and (= cmp1.i248.i_3_87 #b0) a!1))
               (and (= src_reg_3_72 src_reg_3_115)
                    (= src_reg_3_73 src_reg_3_116)
                    (= src_reg_3_74 src_reg_3_117)
                    (= src_reg_3_75 src_reg_3_118)
                    (= src_reg_3_76 src_reg_3_119)
                    (= src_reg_3_77 src_reg_3_120)
                    (= src_reg_3_78 src_reg_3_121)
                    (= src_reg_3_79 src_reg_3_122)
                    (= src_reg_3_80 src_reg_3_123)
                    (= src_reg_3_81 src_reg_3_124)
                    (= dst_reg_3_62 dst_reg_3_105)
                    (= dst_reg_3_63 dst_reg_3_106)
                    (= dst_reg_3_64 dst_reg_3_107)
                    (= dst_reg_3_65 dst_reg_3_108)
                    (= dst_reg_3_66 dst_reg_3_109)
                    (= i29.i.i_3_98 dst_reg_3_110)
                    (= cond36.i.i_3_100 dst_reg_3_111)
                    (= dst_reg_3_69 dst_reg_3_112)
                    (= cond36.i.i_3_100 dst_reg_3_113)
                    (= dst_reg_3_71 dst_reg_3_114))))
      (a!12 (=> (and (= cmp21.i.i_3_97 #b0) (and (= cmp1.i248.i_3_87 #b0) a!1))
                (and (ite (bvslt i29.i.i_3_98 #x0000000000000000)
                          (= cmp40.i.i_3_102 #b1)
                          (= cmp40.i.i_3_102 #b0)))))
      (a!13 (=> (and (= cmp21.i.i_3_97 #b1) (and (= cmp1.i248.i_3_87 #b0) a!1))
                (and (ite (bvult i24.i.i_3_85 i28.i.i_3_95)
                          (= cmp31.i.i_3_99 #b1)
                          (= cmp31.i.i_3_99 #b0))
                     (ite (= cmp31.i.i_3_99 #b1)
                          (= cond36.i.i_3_100 i24.i.i_3_85)
                          (= cond36.i.i_3_100 i28.i.i_3_95)))))
      (a!14 (=> a!1
                (and (= dst_reg_3_68 i24.i.i_3_85)
                     (ite (bvslt i24.i.i_3_85 #x0000000000000000)
                          (= cmp1.i248.i_3_87 #b1)
                          (= cmp1.i248.i_3_87 #b0)))))
      (a!18 (=> (and (= cmp1.i248.i_3_87 #b0) a!1)
                (and (= dst_reg_3_70 i28.i.i_3_95)
                     (ite (bvsgt i28.i.i_3_95 #xffffffffffffffff)
                          (= cmp21.i.i_3_97 #b1)
                          (= cmp21.i.i_3_97 #b0))
                     (= dst_reg_3_69 i29.i.i_3_98)))))
(let ((a!5 (or a!2
               a!3
               (and (= cmp21.i.i_3_97 #b1) (and (= cmp1.i248.i_3_87 #b0) a!1))
               a!4))
      (a!8 (and (= dst_reg_3_112 i.i253.i_3_125)
                (= dst_reg_3_113 i5.i255.i_3_126)
                (= xor.i.i.i_3_127 (bvxor i5.i255.i_3_126 i.i253.i_3_125))
                (ite (= xor.i.i.i_3_127 #x0000000000000000)
                     (= cmp.i.i.i.i_3_129 #b1)
                     (= cmp.i.i.i.i_3_129 #b0))
                (=> a!4
                    (and (= src_reg_3_72 src_reg_3_115)
                         (= src_reg_3_73 src_reg_3_116)
                         (= src_reg_3_74 src_reg_3_117)
                         (= src_reg_3_75 src_reg_3_118)
                         (= src_reg_3_76 src_reg_3_119)
                         (= src_reg_3_77 src_reg_3_120)
                         (= src_reg_3_78 src_reg_3_121)
                         (= src_reg_3_79 src_reg_3_122)
                         (= src_reg_3_80 src_reg_3_123)
                         (= src_reg_3_81 src_reg_3_124)
                         (= dst_reg_3_62 dst_reg_3_105)
                         (= dst_reg_3_63 dst_reg_3_106)
                         (= dst_reg_3_64 dst_reg_3_107)
                         (= dst_reg_3_65 dst_reg_3_108)
                         (= dst_reg_3_66 dst_reg_3_109)
                         (= cond.i250.i_3_90 dst_reg_3_110)
                         (= cond17.i.i_3_94 dst_reg_3_111)
                         (= cond.i250.i_3_90 dst_reg_3_112)
                         (= cond17.i.i_3_94 dst_reg_3_113)
                         (= dst_reg_3_71 dst_reg_3_114)))
                a!7
                (=> a!3
                    (and (= src_reg_3_72 src_reg_3_115)
                         (= src_reg_3_73 src_reg_3_116)
                         (= src_reg_3_74 src_reg_3_117)
                         (= src_reg_3_75 src_reg_3_118)
                         (= src_reg_3_76 src_reg_3_119)
                         (= src_reg_3_77 src_reg_3_120)
                         (= src_reg_3_78 src_reg_3_121)
                         (= src_reg_3_79 src_reg_3_122)
                         (= src_reg_3_80 src_reg_3_123)
                         (= src_reg_3_81 src_reg_3_124)
                         (= dst_reg_3_62 dst_reg_3_105)
                         (= dst_reg_3_63 dst_reg_3_106)
                         (= dst_reg_3_64 dst_reg_3_107)
                         (= dst_reg_3_65 dst_reg_3_108)
                         (= dst_reg_3_66 dst_reg_3_109)
                         (= dst_reg_3_67 dst_reg_3_110)
                         (= dst_reg_3_68 dst_reg_3_111)
                         (= dst_reg_3_69 dst_reg_3_112)
                         (= dst_reg_3_70 dst_reg_3_113)
                         (= dst_reg_3_71 dst_reg_3_114)))
                (=> a!2
                    (and (= src_reg_3_72 src_reg_3_115)
                         (= src_reg_3_73 src_reg_3_116)
                         (= src_reg_3_74 src_reg_3_117)
                         (= src_reg_3_75 src_reg_3_118)
                         (= src_reg_3_76 src_reg_3_119)
                         (= src_reg_3_77 src_reg_3_120)
                         (= src_reg_3_78 src_reg_3_121)
                         (= src_reg_3_79 src_reg_3_122)
                         (= src_reg_3_80 src_reg_3_123)
                         (= src_reg_3_81 src_reg_3_124)
                         (= dst_reg_3_62 dst_reg_3_105)
                         (= dst_reg_3_63 dst_reg_3_106)
                         (= dst_reg_3_64 dst_reg_3_107)
                         (= dst_reg_3_65 dst_reg_3_108)
                         (= dst_reg_3_66 dst_reg_3_109)
                         (= cond53.i.i_3_104 dst_reg_3_110)
                         (= i28.i.i_3_95 dst_reg_3_111)
                         (= cond53.i.i_3_104 dst_reg_3_112)
                         (= dst_reg_3_70 dst_reg_3_113)
                         (= dst_reg_3_71 dst_reg_3_114)))))
      (a!11 (=> a!2
                (and (ite (bvugt i.i245.i_3_82 i29.i.i_3_98)
                          (= cmp48.i.i_3_103 #b1)
                          (= cmp48.i.i_3_103 #b0))
                     (ite (= cmp48.i.i_3_103 #b1)
                          (= cond53.i.i_3_104 i.i245.i_3_82)
                          (= cond53.i.i_3_104 i29.i.i_3_98)))))
      (a!15 (=> a!4
                (and (= dst_reg_3_69 i25.i.i_3_88)
                     (ite (bvugt i.i245.i_3_82 i25.i.i_3_88)
                          (= cmp4.i.i_3_89 #b1)
                          (= cmp4.i.i_3_89 #b0))
                     (ite (= cmp4.i.i_3_89 #b1)
                          (= cond.i250.i_3_90 i.i245.i_3_82)
                          (= cond.i250.i_3_90 i25.i.i_3_88))
                     (= dst_reg_3_68 i26.i.i_3_91)
                     (= dst_reg_3_70 i27.i.i_3_92)
                     (ite (bvult i26.i.i_3_91 i27.i.i_3_92)
                          (= cmp12.i.i_3_93 #b1)
                          (= cmp12.i.i_3_93 #b0))
                     (ite (= cmp12.i.i_3_93 #b1)
                          (= cond17.i.i_3_94 i26.i.i_3_91)
                          (= cond17.i.i_3_94 i27.i.i_3_92))))))
(let ((a!6 (=> (and (= cmp.i.i.i.i_3_129 #b0) a!5)
               (and (ite (bvult xor.i.i.i_3_127 #x0000000100000000)
                         (= tobool.not.i.i.i.i.i_3_131 #b1)
                         (= tobool.not.i.i.i.i.i_3_131 #b0))
                    (= shl.i.i.i.i.i_3_133
                       (bvshl xor.i.i.i_3_127 #x0000000000000020))
                    (ite (= tobool.not.i.i.i.i.i_3_131 #b1)
                         (= spec.select.i.i.i.i.i_3_134 shl.i.i.i.i.i_3_133)
                         (= spec.select.i.i.i.i.i_3_134 xor.i.i.i_3_127))
                    (ite (= tobool.not.i.i.i.i.i_3_131 #b1)
                         (= spec.select17.i.i.i.i.i_3_137 #x0000001f)
                         (= spec.select17.i.i.i.i.i_3_137 #x0000003f))
                    (ite (bvult spec.select.i.i.i.i.i_3_134 #x0001000000000000)
                         (= tobool2.not.i.i.i.i.i_3_139 #b1)
                         (= tobool2.not.i.i.i.i.i_3_139 #b0))
                    (= sub4.i.i.i.i.i_3_141
                       (bvadd spec.select17.i.i.i.i.i_3_137 #xfffffff0))
                    (= shl5.i.i.i.i.i_3_143
                       (bvshl spec.select.i.i.i.i.i_3_134 #x0000000000000010))
                    (ite (= tobool2.not.i.i.i.i.i_3_139 #b1)
                         (= word.addr.1.i.i.i.i.i_3_144 shl5.i.i.i.i.i_3_143)
                         (= word.addr.1.i.i.i.i.i_3_144
                            spec.select.i.i.i.i.i_3_134))
                    (ite (= tobool2.not.i.i.i.i.i_3_139 #b1)
                         (= num.1.i.i.i.i.i_3_145 sub4.i.i.i.i.i_3_141)
                         (= num.1.i.i.i.i.i_3_145 spec.select17.i.i.i.i.i_3_137))
                    (ite (bvult word.addr.1.i.i.i.i.i_3_144 #x0100000000000000)
                         (= tobool8.not.i.i.i.i.i_3_147 #b1)
                         (= tobool8.not.i.i.i.i.i_3_147 #b0))
                    (= sub10.i.i.i.i.i_3_149
                       (bvadd num.1.i.i.i.i.i_3_145 #xfffffff8))
                    (= shl11.i.i.i.i.i_3_151
                       (bvshl word.addr.1.i.i.i.i.i_3_144 #x0000000000000008))
                    (ite (= tobool8.not.i.i.i.i.i_3_147 #b1)
                         (= word.addr.2.i.i.i.i.i_3_152 shl11.i.i.i.i.i_3_151)
                         (= word.addr.2.i.i.i.i.i_3_152
                            word.addr.1.i.i.i.i.i_3_144))
                    (ite (= tobool8.not.i.i.i.i.i_3_147 #b1)
                         (= num.2.i.i.i.i.i_3_153 sub10.i.i.i.i.i_3_149)
                         (= num.2.i.i.i.i.i_3_153 num.1.i.i.i.i.i_3_145))
                    (ite (bvult word.addr.2.i.i.i.i.i_3_152 #x1000000000000000)
                         (= tobool14.not.i.i.i.i.i_3_155 #b1)
                         (= tobool14.not.i.i.i.i.i_3_155 #b0))
                    (= sub16.i.i.i.i.i_3_157
                       (bvadd num.2.i.i.i.i.i_3_153 #xfffffffc))
                    (= shl17.i.i.i.i.i_3_159
                       (bvshl word.addr.2.i.i.i.i.i_3_152 #x0000000000000004))
                    (ite (= tobool14.not.i.i.i.i.i_3_155 #b1)
                         (= word.addr.3.i.i.i.i.i_3_160 shl17.i.i.i.i.i_3_159)
                         (= word.addr.3.i.i.i.i.i_3_160
                            word.addr.2.i.i.i.i.i_3_152))
                    (ite (= tobool14.not.i.i.i.i.i_3_155 #b1)
                         (= num.3.i.i.i.i.i_3_161 sub16.i.i.i.i.i_3_157)
                         (= num.3.i.i.i.i.i_3_161 num.2.i.i.i.i.i_3_153))
                    (ite (bvult word.addr.3.i.i.i.i.i_3_160 #x4000000000000000)
                         (= tobool20.not.i.i.i.i.i_3_163 #b1)
                         (= tobool20.not.i.i.i.i.i_3_163 #b0))
                    (= sub22.i.i.i.i.i_3_165
                       (bvadd num.3.i.i.i.i.i_3_161 #x000000fe))
                    (= shl23.i.i.i.i.i_3_167
                       (bvshl word.addr.3.i.i.i.i.i_3_160 #x0000000000000002))
                    (ite (= tobool20.not.i.i.i.i.i_3_163 #b1)
                         (= word.addr.4.i.i.i.i.i_3_168 shl23.i.i.i.i.i_3_167)
                         (= word.addr.4.i.i.i.i.i_3_168
                            word.addr.3.i.i.i.i.i_3_160))
                    (ite (= tobool20.not.i.i.i.i.i_3_163 #b1)
                         (= num.4.i.i.i.i.i_3_169 sub22.i.i.i.i.i_3_165)
                         (= num.4.i.i.i.i.i_3_169 num.3.i.i.i.i.i_3_161))
                    (= word.addr.4.lobit.i.i.i.i.i.neg_3_171
                       (bvlshr word.addr.4.i.i.i.i.i_3_168 #x000000000000003f))
                    (= i.i.i.i.i.i.neg_3_172
                       ((_ extract 31 0) word.addr.4.lobit.i.i.i.i.i.neg_3_171))
                    (= conv.i.i.i.i_3_173
                       (bvadd num.4.i.i.i.i.i_3_169 i.i.i.i.i.i.neg_3_172))
                    (= phi.bo_3_175 (bvand conv.i.i.i.i_3_173 #x000000ff)))))
      (a!9 (and (ite (bvugt retval.0.i.i.i.i_3_176 #x0000003f)
                     (= cmp.i.i.i_3_178 #b1)
                     (= cmp.i.i.i_3_178 #b0))
                (= sh_prom.i.i.i_3_179
                   ((_ zero_extend 32) retval.0.i.i.i.i_3_176))
                (= notmask.i.i.i_3_181
                   (bvshl #xffffffffffffffff sh_prom.i.i.i_3_179))
                (= sub.i.i.i_3_183
                   (bvxor notmask.i.i.i_3_181 #xffffffffffffffff))
                (= and.i.i256.i_3_184
                   (bvand notmask.i.i.i_3_181 i.i253.i_3_125))
                (ite (= cmp.i.i.i_3_178 #b1)
                     (= retval.sroa.0.0.i.i.i_3_186 #x0000000000000000)
                     (= retval.sroa.0.0.i.i.i_3_186 and.i.i256.i_3_184))
                (ite (= cmp.i.i.i_3_178 #b1)
                     (= retval.sroa.3.0.i.i.i_3_188 #xffffffffffffffff)
                     (= retval.sroa.3.0.i.i.i_3_188 sub.i.i.i_3_183))
                (= dst_reg_3_65 i9.i.i_3_189)
                (= dst_reg_3_66 i11.i.i_3_190)
                (= or.i.i259.i_3_191
                   (bvor retval.sroa.0.0.i.i.i_3_186 i9.i.i_3_189))
                (= and.i1.i260.i_3_192
                   (bvand retval.sroa.3.0.i.i.i_3_188 i11.i.i_3_190))
                (= neg.i.i.i_3_194
                   (bvxor and.i1.i260.i_3_192 #xffffffffffffffff))
                (= and4.i.i.i_3_195 (bvand or.i.i259.i_3_191 neg.i.i.i_3_194))
                (=> (and (= cmp.i.i.i.i_3_129 #b0) a!5)
                    (= retval.0.i.i.i.i_3_176 phi.bo_3_175))
                (=> (and (= cmp.i.i.i.i_3_129 #b1) a!5)
                    (= retval.0.i.i.i.i_3_176 #x00000000))
                (= dst_reg_3_105 dst_reg_3_197)
                (= dst_reg_3_106 dst_reg_3_198)
                (= dst_reg_3_107 dst_reg_3_199)
                (= and4.i.i.i_3_195 dst_reg_3_200)
                (= and.i1.i260.i_3_192 dst_reg_3_201)
                (= dst_reg_3_110 dst_reg_3_202)
                (= dst_reg_3_111 dst_reg_3_203)
                (= dst_reg_3_112 dst_reg_3_204)
                (= dst_reg_3_113 dst_reg_3_205)
                (= dst_reg_3_114 dst_reg_3_206)
                (= src_reg_3_115 src_reg_3_207)
                (= src_reg_3_116 src_reg_3_208)
                (= src_reg_3_117 src_reg_3_209)
                (= src_reg_3_118 src_reg_3_210)
                (= src_reg_3_119 src_reg_3_211)
                (= src_reg_3_120 src_reg_3_212)
                (= src_reg_3_121 src_reg_3_213)
                (= src_reg_3_122 src_reg_3_214)
                (= src_reg_3_123 src_reg_3_215)
                (= src_reg_3_124 src_reg_3_216))))
(let ((a!10 (=> (or (and (= cmp.i.i.i.i_3_129 #b0) a!5)
                    (and (= cmp.i.i.i.i_3_129 #b1) a!5))
                a!9)))
  (and a!6
       (=> a!5 a!8)
       a!10
       a!11
       a!12
       a!13
       a!14
       a!15
       (=> (or (= i19_3_28 #b0) (= i19_3_28 #b1)) a!16)
       a!17
       a!18
       a!19
       (= dst_reg_3_0 dst_reg_3_0)
       (= dst_reg_3_1 dst_reg_3_1)
       (= dst_reg_3_2 dst_reg_3_2)
       (= dst_reg_3_3 dst_reg_3_3)
       (= dst_reg_3_4 dst_reg_3_4)
       (= dst_reg_3_5 dst_reg_3_5)
       (= dst_reg_3_6 dst_reg_3_6)
       (= dst_reg_3_7 dst_reg_3_7)
       (= dst_reg_3_8 dst_reg_3_8)
       (= dst_reg_3_9 dst_reg_3_9)
       (= src_reg_3_10 src_reg_3_10)
       (= src_reg_3_11 src_reg_3_11)
       (= src_reg_3_12 src_reg_3_12)
       (= src_reg_3_13 src_reg_3_13)
       (= src_reg_3_14 src_reg_3_14)
       (= src_reg_3_15 src_reg_3_15)
       (= src_reg_3_16 src_reg_3_16)
       (= src_reg_3_17 src_reg_3_17)
       (= src_reg_3_18 src_reg_3_18)
       (= src_reg_3_19 src_reg_3_19)
       (= src_reg_3_13 src_reg1.sroa.3.0.copyload_3_22)
       (= src_reg_3_14 src_reg1.sroa.11.0.copyload_3_23)
       (= src_reg_3_18 src_reg1.sroa.24.0.copyload_3_24)
       (= dst_reg_3_4 i20.i_3_25)
       (= i_3_26 (bvor i20.i_3_25 src_reg1.sroa.11.0.copyload_3_23))
       (ite (= i_3_26 #x0000000000000000) (= i19_3_28 #b1) (= i19_3_28 #b0))
       (= dst_reg_3_3 i47.i_3_29))))))))

;{"dst_reg":["dst_reg_3_0",[""],"dst_reg_3_1","dst_reg_3_2",["dst_reg_3_3","dst_reg_3_4"],"dst_reg_3_5","dst_reg_3_6","dst_reg_3_7","dst_reg_3_8","dst_reg_3_9"],"src_reg":["src_reg_3_10",[""],"src_reg_3_11","src_reg_3_12",["src_reg_3_13","src_reg_3_14"],"src_reg_3_15","src_reg_3_16","src_reg_3_17","src_reg_3_18","src_reg_3_19"]}
;{"dst_reg":["dst_reg_3_197",[""],"dst_reg_3_198","dst_reg_3_199",["dst_reg_3_200","dst_reg_3_201"],"dst_reg_3_202","dst_reg_3_203","dst_reg_3_204","dst_reg_3_205","dst_reg_3_206"],"src_reg":["src_reg_3_207",[""],"src_reg_3_208","src_reg_3_209",["src_reg_3_210","src_reg_3_211"],"src_reg_3_212","src_reg_3_213","src_reg_3_214","src_reg_3_215","src_reg_3_216"]}
